
  32    4
  10   10   10   10

   0   0   0   0   0   2 2 3 
   6  10  10  10  10   3 7 5 4 
   2  10  10  10  10   2 7 4 
  10  10  10  10  10   1 6 
   1  10  10  10  10   1 6 
   1  10  10  10  10   1 8 
   1  10  10  10  10   1 8 
   6  10  10  10  10   1 9 
   4  10  10  10  10   2 11 10 
   5  10  10  10  10   2 13 12 
   8  10  10  10  10   2 13 12 
   2  10  10  10  10   3 16 15 14 
   4  10  10  10  10   3 16 15 14 
   2  10  10  10  10   3 19 18 17 
   4  10  10  10  10   3 22 19 18 
   3  10  10  10  10   2 18 17 
   6  10  10  10  10   2 22 20 
   8  10  10  10  10   1 21 
   7  10  10  10  10   1 20 
   6  10  10  10  10   2 25 23 
   6  10  10  10  10   2 25 23 
   5  10  10  10  10   1 23 
   9  10  10  10  10   1 24 
   9  10  10  10  10   3 28 27 26 
   8  10  10  10  10   2 27 26 
   3  10  10  10  10   2 31 29 
   8  10  10  10  10   2 31 30 
   6  10  10  10  10   2 31 30 
   1  10  10  10  10   1 30 
   9  10  10  10  10   1 32
   7  10  10  10  10   1 32
   0   0   0   0   0   0 
